\ Model Cl_45_Ins_7.lp
\ LP format - for model browsing. Use MPS format to capture full model detail.
Maximize
 
Subject To
 obj1: y[0] = 0
 obj2: y[1] = 0
 obj1_Exp: - y[0] + 99 x[0] + 96 x[1] + 92 x[2] + 91 x[3] + 89 x[4]
   + 88 x[5] + 87 x[6] + 82 x[7] + 81 x[8] + 76 x[9] + 72 x[10] + 70 x[11]
   + 69 x[12] + 69 x[13] + 68 x[14] + 67 x[15] + 66 x[16] + 63 x[17]
   + 62 x[18] + 62 x[19] + 56 x[20] + 55 x[21] + 55 x[22] + 54 x[23]
   + 52 x[24] + 49 x[25] + 48 x[26] + 45 x[27] + 44 x[28] + 43 x[29]
   + 37 x[30] + 32 x[31] + 30 x[32] + 29 x[33] + 27 x[34] + 26 x[35]
   + 25 x[36] + 23 x[37] + 22 x[38] + 18 x[39] + 17 x[40] + 16 x[41]
   + 13 x[42] + 7 x[43] + 5 x[44] = 0
 obj2_Exp: - y[1] + 65 x[0] + 61 x[1] + 72 x[2] + 49 x[3] + 39 x[4]
   + 87 x[5] + 44 x[6] + 45 x[7] + 58 x[8] + 93 x[9] + 37 x[10] + 58 x[11]
   + 13 x[12] + 17 x[13] + 60 x[14] + 10 x[15] + 80 x[16] + 87 x[17]
   + 36 x[18] + 89 x[19] + 53 x[20] + 63 x[21] + 18 x[22] + 43 x[23]
   + 50 x[24] + 25 x[25] + 21 x[26] + 14 x[27] + 66 x[28] + 7 x[29]
   + 83 x[30] + 84 x[31] + 34 x[32] + 92 x[33] + 59 x[34] + 74 x[35]
   + 67 x[36] + 20 x[37] + 77 x[38] + 94 x[39] + 57 x[40] + 97 x[41]
   + 86 x[42] + 51 x[43] + 43 x[44] = 0
 Budget: 109 x[0] + 106 x[1] + 102 x[2] + 101 x[3] + 99 x[4] + 98 x[5]
   + 97 x[6] + 92 x[7] + 91 x[8] + 86 x[9] + 82 x[10] + 80 x[11] + 79 x[12]
   + 79 x[13] + 78 x[14] + 77 x[15] + 76 x[16] + 73 x[17] + 72 x[18]
   + 72 x[19] + 66 x[20] + 65 x[21] + 65 x[22] + 64 x[23] + 62 x[24]
   + 59 x[25] + 58 x[26] + 55 x[27] + 54 x[28] + 53 x[29] + 47 x[30]
   + 42 x[31] + 40 x[32] + 39 x[33] + 37 x[34] + 36 x[35] + 35 x[36]
   + 33 x[37] + 32 x[38] + 28 x[39] + 27 x[40] + 26 x[41] + 23 x[42]
   + 17 x[43] + 15 x[44] <= 1322
Bounds
Binaries
 x[0] x[1] x[2] x[3] x[4] x[5] x[6] x[7] x[8] x[9] x[10] x[11] x[12] x[13]
 x[14] x[15] x[16] x[17] x[18] x[19] x[20] x[21] x[22] x[23] x[24] x[25]
 x[26] x[27] x[28] x[29] x[30] x[31] x[32] x[33] x[34] x[35] x[36] x[37]
 x[38] x[39] x[40] x[41] x[42] x[43] x[44]
Generals
 y[0] y[1]
End
